161
0 75 10 72 85 6 17 12 44 121 
37 15 81 116 33 125 99 79 24 145 
66 90 93 158 74 154 101 98 156 160 
76 1 71 105 151 159 100 73 22 91 
70 2 56 7 54 4 110 112 26 40 
134 127 143 25 52 55 57 89 62 64 
138 27 35 20 41 34 132 119 19 31 
107 61 128 38 148 97 32 13 16 111 
5 58 88 139 86 30 59 92 45 83 
51 118 82 9 14 46 117 8 103 69 
109 3 106 50 43 80 120 68 36 65 
49 28 63 42 21 126 108 153 94 150 
104 53 129 140 113 141 155 48 131 157 
136 124 149 133 78 123 39 96 11 130 
122 102 67 114 87 23 60 135 84 142 
146 29 95 147 137 115 152 47 144 77 
18 
